c Output_time 26.03.2020 18:13:09_+0100 1585242789737874921
c ** Program information **
c program_name                          "QBRG_debug"
c version                               "0.3.20"
c date                                  "25.3.2020"
c gid_id                                "673970833836058123f633335630c185360d632e"
c author                                "Oliver Kullmann"
c url                                   "https://github.com/OKullmann/oklibrary/blob/master/Satisfiability/Transformers/Generators/Random/QBRG.cpp"
c ** Machine information **
c machine_name                          "chyna-Lenovo-G50-70"
c bogomips                              3791.08
c ** Compilation information **
c compiler_version                      "g++ 7.5.0"
c compilation_date                      "Mar_26_2020 11:16:30"
c compilation_options                   "--std=c++17 -pedantic -fmax-errors=5 -Wall -Wextra -g -D_GLIBCXX_DEBUG"
c NDEBUG                                0
c OPTIMIZE                              0
c ** Parameters **
c command-line                          "./QBRG_debug" "e40 a40 40" "139*1,1|2-2,1|3-3,1" "" "1,t" ""
c output                                "QuBlRaGe_120_139_1585242789724473683.qdimacs"
c options                               "filtered,renamed"
c num_quantifier_blocks                 3
c  quantifier_blocks                    1:e1-40 2:a41-80 3:e81-120
c num_clause-blocks                     1
c  clause-blocks                        139 * {1-40,1,1/2} | {41-80,1,1/2} | {81-120,1,1/2}
c num_e-seeds                           30+2=32
c  e-seeds                              1 0 1 0 4 120 2 40 1 40 0 40 1 139 3 1 1 1 1 2 2 2 1 1 2 3 3 1 1 2 1 1585242789724473266
p cnf 120 139
e 1 2 3 4 5 6 7 8 9 10 11 12 13 14 15 16 17 18 19 20 21 22 23 24 25 26 27 28 29 30 31 32 33 34 35 36 37 38 39 40 0
a 41 42 43 44 45 46 47 48 49 50 51 52 53 54 55 56 57 58 59 60 61 62 63 64 65 66 67 68 69 70 71 72 73 74 75 76 77 78 79 80 0
e 81 82 83 84 85 86 87 88 89 90 91 92 93 94 95 96 97 98 99 100 101 102 103 104 105 106 107 108 109 110 111 112 113 114 115 116 117 118 119 120 0
-12 60 -81 0
40 -67 -81 0
2 -58 81 0
35 -76 81 0
1 -47 -82 0
-39 -78 -82 0
-20 -41 -83 0
-2 78 83 0
25 -45 -84 0
2 -54 -84 0
-17 -72 -84 0
36 68 84 0
32 -41 -85 0
18 -59 -85 0
3 66 -85 0
-7 -80 -85 0
-4 74 85 0
-39 -49 -86 0
-16 -67 -86 0
-21 -46 86 0
-25 -72 86 0
-15 75 86 0
-26 -55 -87 0
-35 -50 -88 0
-22 -71 88 0
12 80 88 0
20 -71 89 0
-30 -77 89 0
18 -68 -90 0
-15 -72 -90 0
27 76 -90 0
-19 -70 90 0
17 48 -91 0
-8 -49 -91 0
24 79 91 0
-11 -60 -92 0
11 66 -92 0
37 59 92 0
-20 -80 92 0
16 47 -93 0
23 69 -93 0
24 -61 93 0
-3 -77 93 0
-8 45 -94 0
22 45 -94 0
10 -57 -94 0
-9 77 -94 0
-33 -69 94 0
-36 52 95 0
-35 59 95 0
-33 51 -96 0
38 -73 -96 0
18 -59 96 0
29 -62 96 0
5 70 -97 0
23 73 -97 0
-36 52 97 0
-23 77 97 0
-38 70 -98 0
-14 75 99 0
28 -52 100 0
-34 56 100 0
1 63 100 0
-12 69 100 0
-10 61 -101 0
15 43 102 0
16 -63 103 0
9 65 103 0
10 45 -104 0
-28 -68 -104 0
1 -47 104 0
-10 51 104 0
-29 -53 104 0
-17 53 104 0
-29 -57 104 0
35 66 104 0
-4 49 -105 0
31 51 -105 0
-20 61 -105 0
-20 -73 -105 0
19 -41 105 0
24 -51 105 0
-6 54 105 0
-10 -66 105 0
-2 72 105 0
-31 -73 105 0
8 75 105 0
33 -77 105 0
27 -44 -106 0
30 -57 -106 0
10 -62 -106 0
-27 -72 -106 0
-12 73 -106 0
19 -61 106 0
-2 75 106 0
-16 48 -107 0
-16 72 -107 0
31 75 107 0
-15 80 107 0
7 -52 -108 0
2 66 -108 0
32 -76 -108 0
5 47 108 0
-23 79 -109 0
-27 -76 -110 0
-2 -80 -110 0
19 53 110 0
-39 -78 110 0
13 -44 -111 0
-18 61 -111 0
38 65 -111 0
-40 48 111 0
4 -49 111 0
17 48 -112 0
-27 -78 -112 0
31 42 113 0
18 -64 -114 0
-7 -41 114 0
10 58 114 0
-34 -69 114 0
18 -73 114 0
18 61 -115 0
27 -63 -115 0
6 76 -115 0
40 42 115 0
23 44 115 0
-40 52 115 0
-5 58 -116 0
-1 75 -116 0
-29 -50 117 0
-28 -76 117 0
-1 70 -118 0
6 -62 -119 0
30 -49 119 0
5 -50 119 0
23 53 119 0
-31 64 -120 0
-32 -77 -120 0
-14 63 120 0
